1656655200
1656693900
1656914400
1656950400
1657087200
1657096020
1657202400
1657209600
1657288800
1657296000
1657548000
1657555200
1657634400
1657641600
1657720800
1657728000
1657807200
1657814400
1657893600
1657900800
1658152800
1658160000
1658239200
1658246400
1658325600
1658332800
1658412000
1658419200
1658498400
1658505600
1659103200
1659110400
